tsp_instances/TSP50/instance59.tsp
NODE_COORD_SECTION
0 115 149
1 16 175
2 128 56
3 21 44
4 109 89
5 45 7
6 139 110
7 97 24
8 13 79
9 156 4
10 14 67
11 87 24
12 128 145
13 154 142
14 139 101
15 1 105
16 158 34
17 68 25
18 123 132
19 149 35
20 101 178
21 137 45
22 149 67
23 188 34
24 30 18
25 10 140
26 65 30
27 86 149
28 134 24
29 109 138
30 11 87
31 81 84
32 22 148
33 160 157
34 6 74
35 169 160
36 122 161
37 198 110
38 168 56
39 168 190
40 186 149
41 165 151
42 150 104
43 118 32
44 110 64
45 102 110
46 31 194
47 88 83
48 96 123
49 80 129
