tsp_instances/TSP50/instance59.opt.tour
TOUR_SECTION
1
13
14
42
34
40
36
41
38
43
15
7
19
30
28
50
49
46
5
48
32
45
3
22
23
39
24
17
20
10
29
44
8
12
18
27
6
25
4
11
35
9
31
16
26
33
2
47
21
37
-1